
Gurobi 9.0.2 (mac64, Python) logging started Sun Dec 11 22:22:47 2022

Using license file /Users/muratilter/gurobi.lic
Set parameter LogFile to value best-lin-model1-future-4.log
Academic license - for non-commercial use only
Read LP format model from file new_best_lin_future_4.lp
Reading time = 0.06 seconds
: 14853 rows, 896 columns, 107840 nonzeros
Gurobi Optimizer version 9.0.2 build v9.0.2rc0 (mac64)
Optimize a model with 14853 rows, 896 columns and 107840 nonzeros
Model fingerprint: 0xdd9e4838
Variable types: 0 continuous, 896 integer (896 binary)
Coefficient statistics:
  Matrix range     [1e+00, 2e+01]
  Objective range  [2e+00, 4e+00]
  Bounds range     [1e+00, 1e+00]
  RHS range        [1e+00, 2e+01]
Presolve removed 290 rows and 224 columns
Presolve time: 0.29s
Presolved: 14563 rows, 672 columns, 106832 nonzeros
Variable types: 0 continuous, 672 integer (672 binary)

Root relaxation: objective 3.559754e+01, 6423 iterations, 0.32 seconds

    Nodes    |    Current Node    |     Objective Bounds      |     Work
 Expl Unexpl |  Obj  Depth IntInf | Incumbent    BestBd   Gap | It/Node Time

     0     0   35.59754    0  347          -   35.59754      -     -    1s
     0     0   35.62548    0  296          -   35.62548      -     -    2s
     0     0   35.63743    0  331          -   35.63743      -     -    2s
     0     0   35.76021    0  309          -   35.76021      -     -    2s
     0     0   35.81492    0  318          -   35.81492      -     -    2s
     0     0   36.33880    0  273          -   36.33880      -     -    3s
     0     0   36.46740    0  303          -   36.46740      -     -    3s
     0     0   37.00020    0  284          -   37.00020      -     -    3s
     0     0   37.16637    0  302          -   37.16637      -     -    4s
     0     0   37.25283    0  286          -   37.25283      -     -    4s
     0     0   37.27477    0  289          -   37.27477      -     -    4s
     0     0   37.27561    0  290          -   37.27561      -     -    4s
     0     0   37.27578    0  290          -   37.27578      -     -    4s
     0     0   37.55387    0  280          -   37.55387      -     -    4s
     0     0   37.58131    0  238          -   37.58131      -     -    5s
     0     0   37.58522    0  237          -   37.58522      -     -    5s
     0     0   37.58585    0  237          -   37.58585      -     -    5s
     0     0   37.81086    0  383          -   37.81086      -     -    5s
     0     0   37.82714    0  360          -   37.82714      -     -    5s
     0     0   37.83588    0  363          -   37.83588      -     -    6s
     0     0   37.83701    0  365          -   37.83701      -     -    6s
     0     0   37.83702    0  365          -   37.83702      -     -    6s
     0     0   38.21297    0  283          -   38.21297      -     -    6s
     0     0   38.23118    0  275          -   38.23118      -     -    6s
     0     0   38.24264    0  276          -   38.24264      -     -    6s
     0     0   38.24284    0  285          -   38.24284      -     -    6s
     0     0   38.68995    0  239          -   38.68995      -     -    7s
     0     0   38.70617    0  263          -   38.70617      -     -    7s
     0     0   38.70888    0  362          -   38.70888      -     -    7s
     0     0   38.70918    0  351          -   38.70918      -     -    7s
     0     0   39.20549    0  283          -   39.20549      -     -    7s
     0     0   39.25194    0  306          -   39.25194      -     -    8s
     0     0   39.26701    0  298          -   39.26701      -     -    8s
     0     0   39.26912    0  298          -   39.26912      -     -    8s
     0     0   39.27099    0  298          -   39.27099      -     -    8s
     0     0   39.27130    0  308          -   39.27130      -     -    8s
     0     0   39.48802    0  290          -   39.48802      -     -    8s
     0     0   39.55312    0  290          -   39.55312      -     -    8s
     0     0   39.56333    0  285          -   39.56333      -     -    8s
     0     0   39.57043    0  285          -   39.57043      -     -    8s
     0     0   39.57045    0  285          -   39.57045      -     -    8s
     0     0   39.79220    0  251          -   39.79220      -     -    9s
     0     0   39.81601    0  295          -   39.81601      -     -    9s
     0     0   39.81743    0  296          -   39.81743      -     -    9s
     0     0   39.81780    0  295          -   39.81780      -     -    9s
     0     0   39.96152    0  283          -   39.96152      -     -    9s
     0     0   39.99305    0  285          -   39.99305      -     -    9s
     0     0   39.99964    0  288          -   39.99964      -     -    9s
     0     0   39.99992    0  287          -   39.99992      -     -   10s
     0     0   40.21116    0  329          -   40.21116      -     -   10s
     0     0   40.23871    0  342          -   40.23871      -     -   10s
     0     0   40.24208    0  350          -   40.24208      -     -   10s
     0     0   40.24211    0  351          -   40.24211      -     -   10s
     0     0   40.42497    0  324          -   40.42497      -     -   11s
     0     0   40.45190    0  292          -   40.45190      -     -   11s
     0     0   40.46096    0  302          -   40.46096      -     -   11s
     0     0   40.46236    0  302          -   40.46236      -     -   11s
     0     0   40.46275    0  305          -   40.46275      -     -   11s
     0     0   40.75724    0  271          -   40.75724      -     -   11s
     0     0   40.81651    0  260          -   40.81651      -     -   11s
     0     0   40.82785    0  252          -   40.82785      -     -   11s
     0     0   40.83002    0  257          -   40.83002      -     -   11s
     0     0   40.83332    0  274          -   40.83332      -     -   11s
     0     0   40.83354    0  275          -   40.83354      -     -   12s
     0     0   40.96913    0  260          -   40.96913      -     -   12s
     0     0   41.03477    0  335          -   41.03477      -     -   12s
     0     0   41.09885    0  329          -   41.09885      -     -   12s
     0     0   41.10785    0  289          -   41.10785      -     -   12s
     0     0   41.10888    0  284          -   41.10888      -     -   12s
     0     0   41.10900    0  282          -   41.10900      -     -   12s
     0     0   41.79977    0  316          -   41.79977      -     -   13s
     0     0   41.82211    0  320          -   41.82211      -     -   13s
     0     0   41.82442    0  319          -   41.82442      -     -   13s
     0     0   41.82490    0  322          -   41.82490      -     -   13s
     0     0   41.96076    0  347          -   41.96076      -     -   13s
     0     0   41.98111    0  339          -   41.98111      -     -   14s
     0     0   41.98595    0  345          -   41.98595      -     -   14s
     0     0   41.98646    0  350          -   41.98646      -     -   14s
     0     0   42.13049    0  282          -   42.13049      -     -   14s
     0     0   42.16547    0  291          -   42.16547      -     -   14s
     0     0   42.18303    0  279          -   42.18303      -     -   14s
     0     0   42.18360    0  279          -   42.18360      -     -   15s
     0     0   42.62085    0  314          -   42.62085      -     -   15s
     0     0   42.67319    0  336          -   42.67319      -     -   15s
     0     0   42.72250    0  338          -   42.72250      -     -   15s
     0     0   42.72551    0  332          -   42.72551      -     -   15s
     0     0   42.72551    0  332          -   42.72551      -     -   15s
     0     0   44.17565    0  257          -   44.17565      -     -   16s
     0     0   44.24324    0  267          -   44.24324      -     -   16s
     0     0   44.26544    0  261          -   44.26544      -     -   16s
     0     0   44.27618    0  282          -   44.27618      -     -   16s
     0     0   44.28468    0  271          -   44.28468      -     -   16s
     0     0   44.28541    0  273          -   44.28541      -     -   16s
     0     0   45.19118    0  231          -   45.19118      -     -   16s
     0     0   45.19118    0  230          -   45.19118      -     -   17s
     0     0   46.22561    0  235          -   46.22561      -     -   17s
     0     0   46.23256    0  207          -   46.23256      -     -   17s
     0     0   46.23812    0  221          -   46.23812      -     -   17s
     0     0   46.23898    0  232          -   46.23898      -     -   17s
     0     0   47.24006    0  261          -   47.24006      -     -   17s
     0     0   47.24188    0  249          -   47.24188      -     -   18s
     0     0   47.25073    0  220          -   47.25073      -     -   18s
     0     0   47.25267    0  255          -   47.25267      -     -   18s
     0     0   47.25296    0  247          -   47.25296      -     -   18s
     0     0   47.25804    0  218          -   47.25804      -     -   18s
     0     0   47.27211    0  197          -   47.27211      -     -   18s
     0     0   47.27239    0  195          -   47.27239      -     -   18s
     0     0   47.60692    0  173          -   47.60692      -     -   18s
     0     0   47.61028    0  164          -   47.61028      -     -   18s
     0     0   47.61038    0  164          -   47.61038      -     -   18s
     0     0   47.66191    0  145          -   47.66191      -     -   19s
     0     0   47.67471    0  149          -   47.67471      -     -   19s
     0     0   47.67471    0  146          -   47.67471      -     -   19s
     0     0   48.40517    0  179          -   48.40517      -     -   19s
     0     0   48.40752    0  186          -   48.40752      -     -   19s
     0     0   48.41269    0  176          -   48.41269      -     -   19s
     0     0   48.41701    0  231          -   48.41701      -     -   19s
     0     0   48.42085    0  246          -   48.42085      -     -   19s
     0     0   48.42330    0  213          -   48.42330      -     -   19s
     0     0   48.42358    0  307          -   48.42358      -     -   20s
     0     0   48.42401    0  212          -   48.42401      -     -   20s
     0     0   48.42420    0  252          -   48.42420      -     -   20s
     0     0   48.42773    0  281          -   48.42773      -     -   20s
     0     0   48.42773    0  331          -   48.42773      -     -   20s
     0     0   48.42924    0  294          -   48.42924      -     -   21s
     0     0   48.42924    0  271          -   48.42924      -     -   21s
     0     2   48.42924    0  270          -   48.42924      -     -   24s
   135   164   50.00000   32   48          -   48.43659      -  52.3   25s
  1063   779   48.85052   16  363          -   48.44093      -  61.4   33s
  1064   780   51.24175   33  302          -   50.00000      -  61.3   39s
  1065   781   55.54753   15  265          -   50.00000      -  61.3   43s
  1066   781   50.00000    4   90          -   50.00000      -  61.2   45s
  1074   787   50.00000   21   43          -   50.00000      -  60.8   51s
  1082   792   50.00000   43   52          -   50.00000      -  60.3   56s
  1089   798   50.00000   37   54          -   50.00000      -  83.4   60s
  1101   806   50.00000   12   39          -   50.00000      -  82.5   65s
  1109   814   50.00000   25   29          -   50.00000      -  32.6   70s
  1127   828   50.00000   28  229          -   50.00000      -  33.6   78s
  1146   858   50.00000   31   35          -   50.00000      -  34.0   81s
  1209   957   50.00000   41   32          -   50.00000      -  38.8   87s
  1345  1062   50.00000   39   33          -   50.00000      -  44.6  102s
  1572  1351 infeasible   51               -   50.00000      -  87.7  115s
  2218  1640   50.00000   36   56          -   50.00000      -  83.3  122s
  3271  1644   54.00000   54   22          -   50.00000      -  74.1  126s
  4244  1751   50.00000   39   25          -   50.00000      -  66.7  130s
  5487  2022   50.00000   42   68          -   50.00000      -  63.1  137s
  5980  2202   50.00000   28  220          -   50.00000      -  61.3  140s
  7589  2477   50.00000   51   41          -   50.00000      -  56.0  149s
* 8518   349              63      50.0000000   50.00000  0.00%  52.1  149s

Cutting planes:
  Gomory: 1
  Cover: 5
  MIR: 3
  StrongCG: 1
  Flow cover: 24
  Inf proof: 1
  Zero half: 5

Explored 9707 nodes (555047 simplex iterations) in 149.32 seconds
Thread count was 8 (of 8 available processors)

Solution count 1: 50 

Optimal solution found (tolerance 1.00e-04)
Best objective 5.000000000000e+01, best bound 5.000000000000e+01, gap 0.0000%
